
Gurobi 9.1.2 (win64) logging started Sat Sep 25 18:00:07 2021

Changed value of parameter LogFile to ../results/logs/log_samuel_kroger_2021_09_25_17_59_54.csv_2_250.log
   Prev:   Default: 
Changed value of parameter method to 3
   Prev: -1  Min: -1  Max: 5  Default: -1
